20	5
0	5	2	3	1	5	4
1	2	11	8
2	1	18
3	2	12	8
4	1	10
5	3	11	19	9
6	1	7
7	2	11	19
8	2	10	15
9	3	18	20	17
10	2	14	13
11	2	17	16
12	4	10	9	6	15
13	3	19	18	16
14	1	21
15	1	21
16	1	21
17	1	21
18	1	21
19	1	21
20	1	21
21	0
0	0	0	0	0	0	0
1	2	3	4	1	5	4
2	10	4	5	4	2	1
3	4	2	1	2	5	3
4	4	3	1	1	1	4
5	4	2	3	1	5	1
6	9	2	4	3	4	4
7	10	4	3	4	2	4
8	7	2	3	1	4	2
9	7	1	2	2	1	3
10	7	3	4	2	3	4
11	8	2	4	5	4	2
12	2	4	3	3	4	4
13	5	4	1	3	5	5
14	9	1	2	1	3	5
15	9	3	4	1	5	5
16	10	1	3	3	4	4
17	2	5	4	3	3	4
18	2	1	2	3	1	3
19	1	5	3	5	5	4
20	7	1	5	2	1	5
21	0	0	0	0	0	0
8	9	8	11	8
